c description: Random 2-CNF over 15 variables and 65 clauses
c generator: CNFgen (0.9.0)
c copyright: (C) 2012-2020 Massimo Lauria <massimo.lauria@uniroma1.it>
c url: https://massimolauria.net/cnfgen
c
p cnf 15 65
-5 8 0
2 -3 0
11 -12 0
2 11 0
-7 -10 0
4 -6 0
-8 11 0
5 11 0
-5 -12 0
-6 -14 0
1 -14 0
-10 -15 0
7 11 0
4 -7 0
1 -12 0
6 -12 0
3 10 0
1 6 0
1 -6 0
4 10 0
3 15 0
8 -12 0
-8 -14 0
-2 10 0
1 -13 0
13 -15 0
13 -14 0
-4 -9 0
-12 -15 0
13 14 0
-3 -7 0
-8 -13 0
2 -13 0
-6 -9 0
-12 -14 0
-1 3 0
11 13 0
-3 -15 0
-11 14 0
-10 -12 0
-9 -14 0
3 11 0
2 12 0
-1 -8 0
4 9 0
-1 -3 0
-8 -15 0
-1 -9 0
-2 11 0
-4 -13 0
-5 -8 0
4 -11 0
1 11 0
-9 -10 0
-2 -3 0
9 12 0
7 12 0
-3 -8 0
2 10 0
-6 -10 0
-7 -14 0
-3 -12 0
-8 -11 0
-1 -13 0
3 8 0